db/data/273693948613413885435131610511413764.z3.out
sat
-------------------
779.757464876
